16 17 



































































































61 68 10 4 56 
64 41 26 74 45 0 
22 69 36 19 25 75 
32 38 62 50 44 
39 59 73 1 8 
54 53 72 9 55 
76 65 2 71 29 15 
14 47 20 43 18 
40 30 42 28 3 
63 27 58 21 51 
13 12 23 33 7 
24 11 60 67 6 
70 48 34 49 5 46 
31 66 37 52 57 
35 
